NAME
ROWS
 N  OBJ
 L  c1
 L  c2
COLUMNS
    x         c1        2
    x         c2        1
    x         OBJ       -3
    y         c1        1
    y         c2        2
    y         OBJ       -4
RHS
    rhs       c1        10
    rhs       c2        15
RANGES
BOUNDS
 LO bounds    x         0
 PL bounds    x
 LO bounds    y         0
 PL bounds    y
ENDATA
